7 2 45 3 5 12 17 60 
36 53 82 66 91 96 
98 14 19 49 20 80 
65 83 62 94 81 72 70 
92 33 29 34 28 26 31 32 50 
95 69 87 10 59 58 
42 39 61 6 46 4 1 100 
63 85 48 22 57 74 24 
71 67 90 55 68 93 
47 16 15 78 97 75 
52 64 76 89 21 77 
11 73 37 
23 18 51 54 
27 30 56 25 
44 40 41 43 35 
88 86 13 
84 
38 
8 
99 
79 
9 

